NAME : gr96.tsp
COMMENT : Optimal tour for gr96.tsp
TYPE : TOUR
DIMENSION : 96
Total Length: 549.288975445429
TOUR_SECTION
1
30
31
29
33
11
46
47
48
54
60
61
62
63
64
66
67
68
76
77
85
86
87
84
74
75
73
72
71
59
70
69
57
56
58
53
55
51
52
50
49
43
42
41
39
40
45
44
34
35
32
36
37
38
79
80
81
82
83
91
90
89
88
78
92
93
95
94
96
65
28
27
24
25
23
26
22
21
19
18
20
17
16
15
14
13
12
10
9
7
8
6
5
4
2
3
-1
EOF
